Gurobi Optimizer version 9.1.2 build v9.1.2rc0 (linux64)
Thread count: 36 physical cores, 72 logical processors, using up to 32 threads
Optimize a model with 12 rows, 57 columns and 590 nonzeros
Model fingerprint: 0xf32eec78
Model has 47 quadratic constraints
Coefficient statistics:
  Matrix range     [2e-05, 3e+00]
  QMatrix range    [1e+00, 1e+00]
  QLMatrix range   [1e+00, 1e+00]
  Objective range  [8e-03, 7e-01]
  Bounds range     [1e+00, 1e+00]
  RHS range        [1e+00, 1e+00]
Presolve removed 9 rows and 0 columns

Continuous model is non-convex -- solving as a MIP.

Presolve removed 9 rows and 0 columns
Presolve time: 0.00s
Presolved: 189 rows, 57 columns, 443 nonzeros
Presolved model has 47 bilinear constraint(s)
Variable types: 57 continuous, 0 integer (0 binary)

Root relaxation: objective -1.743721e+00, 44 iterations, 0.00 seconds

    Nodes    |    Current Node    |     Objective Bounds      |     Work
 Expl Unexpl |  Obj  Depth IntInf | Incumbent    BestBd   Gap | It/Node Time

     0     0   -1.74372    0   38          -   -1.74372      -     -    0s
H    0     0                       0.6147548   -1.74372   384%     -    0s
     0     0   -1.64739    0    1    0.61475   -1.64739   368%     -    0s
H    0     0                      -1.6450460   -1.64739  0.14%     -    0s
     0     0     cutoff    0        -1.64505   -1.64505  0.00%     -    0s

Cutting planes:
  RLT: 25
  BQP: 3

Explored 1 nodes (76 simplex iterations) in 0.01 seconds
Thread count was 32 (of 72 available processors)

Solution count 2: -1.64505 0.614755 
No other solutions better than -1.64505

Optimal solution found (tolerance 1.00e-04)
Best objective -1.645045978473e+00, best bound -1.645045978473e+00, gap 0.0000%

User-callback calls 77, time in user-callback 0.00 sec
Gurobi Optimizer version 9.1.2 build v9.1.2rc0 (linux64)
Thread count: 36 physical cores, 72 logical processors, using up to 32 threads
Optimize a model with 24 rows, 125 columns and 2580 nonzeros
Model fingerprint: 0x638db918
Model has 105 quadratic constraints
Coefficient statistics:
  Matrix range     [5e-06, 5e+01]
  QMatrix range    [1e+00, 1e+00]
  QLMatrix range   [1e+00, 1e+00]
  Objective range  [1e-02, 1e+00]
  Bounds range     [1e+00, 1e+00]
  RHS range        [1e+00, 1e+00]
Presolve removed 11 rows and 0 columns

Continuous model is non-convex -- solving as a MIP.

Presolve removed 11 rows and 0 columns
Presolve time: 0.00s
Presolved: 428 rows, 125 columns, 2018 nonzeros
Presolved model has 105 bilinear constraint(s)
Variable types: 125 continuous, 0 integer (0 binary)

Root relaxation: objective -5.161473e+00, 155 iterations, 0.00 seconds

    Nodes    |    Current Node    |     Objective Bounds      |     Work
 Expl Unexpl |  Obj  Depth IntInf | Incumbent    BestBd   Gap | It/Node Time

     0     0   -5.16147    0   95          -   -5.16147      -     -    0s
H    0     0                       0.3338074   -5.16147  1646%     -    0s
     0     0   -4.15170    0   95    0.33381   -4.15170  1344%     -    0s
H    0     0                      -0.9308542   -4.15170   346%     -    0s
     0     0   -4.12960    0   95   -0.93085   -4.12960   344%     -    0s
     0     0   -3.92951    0   47   -0.93085   -3.92951   322%     -    0s
H    0     0                      -1.9599756   -3.92951   100%     -    0s
     0     0   -3.90037    0   47   -1.95998   -3.90037  99.0%     -    0s
     0     0   -3.84237    0   70   -1.95998   -3.84237  96.0%     -    0s
     0     0   -3.83340    0   70   -1.95998   -3.83340  95.6%     -    0s
     0     0   -3.82100    0   55   -1.95998   -3.82100  95.0%     -    0s
     0     0   -3.81208    0   88   -1.95998   -3.81208  94.5%     -    0s
     0     0   -3.80882    0   91   -1.95998   -3.80882  94.3%     -    0s
     0     0   -3.80841    0   91   -1.95998   -3.80841  94.3%     -    0s
     0     0   -3.80523    0   92   -1.95998   -3.80523  94.1%     -    0s
     0     0   -3.80428    0   92   -1.95998   -3.80428  94.1%     -    0s
     0     0   -3.80394    0   89   -1.95998   -3.80394  94.1%     -    0s
H    0     0                      -2.5834413   -3.80394  47.2%     -    0s
H    0     0                      -2.5866266   -3.80394  47.1%     -    0s
     0     2   -3.80394    0   89   -2.58663   -3.80394  47.1%     -    0s
*  562   492              21      -2.6964650   -3.43516  27.4%  33.4    0s
*  942   826              29      -2.9067478   -3.42773  17.9%  28.8    0s
* 1309   994              25      -3.0411145   -3.42773  12.7%  25.5    0s
* 1450   994              22      -3.1251548   -3.42773  9.68%  25.1    0s
* 1452   994              23      -3.1251612   -3.42773  9.68%  25.0    0s
* 1822   732              20      -3.1254896   -3.34519  7.03%  22.9    0s
* 1858   605              17      -3.1265106   -3.34519  6.99%  22.6    0s
* 1899   605              14      -3.1281794   -3.34519  6.94%  22.3    0s
* 1983   605              17      -3.1286466   -3.34519  6.92%  21.9    0s
* 2301   634              23      -3.1366629   -3.18647  1.59%  19.6    0s
* 2430   634              25      -3.1492536   -3.18647  1.18%  19.3    0s
* 2717   207              20      -3.1546320   -3.16348  0.28%  17.9    0s
* 2719   207              21      -3.1553674   -3.16348  0.26%  17.8    0s
* 2853   207              20      -3.1583729   -3.16348  0.16%  17.2    0s
* 3225    17              18      -3.1587214   -3.15880  0.00%  15.4    0s

Cutting planes:
  RLT: 60
  BQP: 8
  PSD: 40

Explored 3425 nodes (50309 simplex iterations) in 0.78 seconds
Thread count was 32 (of 72 available processors)

Solution count 10: -3.15872 -3.15837 -3.15537 ... -3.12549
No other solutions better than -3.15872

Optimal solution found (tolerance 1.00e-04)
Best objective -3.158721353939e+00, best bound -3.158721353939e+00, gap 0.0000%

User-callback calls 7154, time in user-callback 0.00 sec



objective value: -3.158721353938805
objective bound: -3.158721353938805
x_opt: [0.0, 0.0, 1.0, 0.0, 1.0, 0.6715546827890351, 1.0, 1.0, 1.0, 0.0, 0.0, 0.1978211016134281, 0.0, 0.0, 0.0, 0.49405417179526445, 0.0, 0.0, 0.005517301964108587, 0.0]
GUROBI solution time: 0.7775731086730957




